c instance by G2
c solution = 1011011
c Known solution cost is 435 
p cnf 7 30
w 36 64 70 68 26 72 99
6 1 -5 0
-2 1 -3 0
-2 6 5 0
-4 -5 -7 0
1 -5 -3 0
5 7 2 0
7 6 -2 0
-7 3 5 0
1 -3 -7 0
1 2 -4 0
7 4 6 0
-7 2 6 0
-2 4 -5 0
-6 1 2 0
-3 7 -6 0
3 -6 -1 0
4 6 -1 0
4 -2 -5 0
-7 -5 4 0
-2 -3 1 0
5 3 -6 0
-6 -3 -2 0
2 -5 7 0
-3 4 5 0
-6 -7 -5 0
3 -1 -7 0
7 -4 -6 0
4 -1 -6 0
2 3 -4 0
-7 -2 5 0
